O La Ti Li
1.00
11.63600 0.00000 0.00000
0.00000 7.90500 0.00000
0.00000 0.00000 11.63600
 54 10 18 6
Selective Dynamics
Direct
0.9017320499529083   0.7628573075870446   0.2336632438903885   T   T   T
0.0664066411481803   0.5063503237636306   0.2340830615492271   T   T   T
0.0617468885925748   0.7893964917535932   0.0596946630688396   T   T   T
0.9022097089003825   0.2505411929226873   0.2321316562247012   T   T   T
0.0780564709336737   0.0061561725803227   0.2259785718807985   T   T   T
0.0645551259844076   0.2205017835398683   0.0595926110908834   T   T   T
0.2354027929466847   0.7456456133355448   0.2269111446905036   T   T   T
0.4041317147481927   0.5063412476016419   0.2294940800721564   T   T   T
0.4111595530116282   0.7827650342420107   0.0596776361567773   T   T   T
0.2355517207308176   0.2653206799719775   0.2304563730079172   T   T   T
0.3759463765156333   0.0054484788424074   0.2236149930616775   T   T   T
0.4086675776977854   0.2262882038596233   0.0597976843549751   T   T   T
0.7368791686229728   0.5071556898888453   0.2256061757296993   T   T   T
0.7304798025106259   0.7547731605677955   0.0591766025702080   T   T   T
0.5691265148166456   0.2075574105046921   0.2284579774077996   T   T   T
0.7532174848036195   0.0073657319689486   0.2151704066848089   T   T   T
0.7305058394705365   0.2599752644530229   0.0594312158370833   T   T   T
0.9036409634946119   0.7559906348962964   0.5679351785198207   T   T   T
0.0779998395036491   0.5070513527042727   0.5580705763090381   T   T   T
0.0661693610231803   0.7970610860394121   0.3940612236656633   T   T   T
0.9033353464550188   0.2589375239960109   0.5676691222543486   T   T   T
0.0558500956707822   0.0069200872257268   0.5822503942776324   T   T   T
0.0657599426527658   0.2161460216819867   0.3942855793221180   T   T   T
0.2362358140361264   0.7918005176038021   0.5522197365714228   T   T   T
0.3937455658796394   0.5070762937706716   0.5608615238539246   T   T   T
0.4070128252674917   0.7927948041746785   0.3931943734915821   T   T   T
0.2361647004208220   0.2234742604312686   0.5541620957661096   T   T   T
0.4187360426299188   0.0069714317669115   0.5769234970585219   T   T   T
0.4069974678518720   0.2200771658355061   0.3933490942832325   T   T   T
0.5682982515703063   0.7557142625678395   0.5701541860644331   T   T   T
0.7367513302232866   0.5077882339095544   0.5719439353703984   T   T   T
0.7335257163236986   0.7828665452149509   0.3941152595208041   T   T   T
0.5686263264974579   0.2591970374171723   0.5693544375547452   T   T   T
0.7359919849592420   0.0081376123540752   0.5523264078132534   T   T   T
0.7338833150162231   0.2328696083401978   0.3935508619808489   T   T   T
0.9030208111040078   0.7762979372643535   0.8874111864010708   T   T   T
0.0994669966032734   0.5072104165789183   0.9025242354968680   T   T   T
0.0931402358366410   0.7426664267044847   0.7278053687476268   T   T   T
0.9041079750329983   0.2359278771294650   0.8894382311403307   T   T   T
0.0661571413796812   0.0040113099507871   0.8721966855896671   T   T   T
0.0894850985879460   0.2697202535608563   0.7282177404898552   T   T   T
0.2358939761236798   0.7817030960666577   0.9123615011755938   T   T   T
0.3725188555122342   0.5071992252948875   0.8986908233381726   T   T   T
0.3769531463175482   0.7491532755969575   0.7274430558944064   T   T   T
0.2358437423876514   0.2220212834269569   0.9039084196240406   T   T   T
0.4067663725330343   0.0043683610507388   0.8776669903984735   T   T   T
0.3807252557326815   0.2633719134867131   0.7276822673577110   T   T   T
0.5686450473657675   0.7736717139238377   0.8825684072903963   T   T   T
0.7355640277615573   0.5071945393997412   0.8903345477183150   T   T   T
0.7370420767859432   0.8036786210582900   0.7266309648999584   T   T   T
0.5674102089384818   0.2386132148245041   0.8849896826045873   T   T   T
0.7354825643487597   0.0072821609849540   0.9127561774095482   T   T   T
0.7368215598045994   0.2139322162279511   0.7270652332132108   T   T   T
0.5696060679654931   0.8066537138869003   0.2290987282268803   T   T   T
0.8983902036849765   0.0083430256599580   0.0548143563765947   T   T   T
0.2379738837027837   0.0084891663253188   0.0586754948236099   T   T   T
0.5735241202528133   0.0078241871904330   0.0544522840242334   T   T   T
0.8996219290273524   0.0066481599823705   0.3861888241044305   T   T   T
0.2363128501971009   0.0068696900414003   0.3821127664142036   T   T   T
0.5701696156921768   0.0069130434776822   0.3952983214640552   T   T   T
0.9013095953541680   0.0100699455557022   0.7263147366449039   T   T   T
0.2359298611129032   0.5065809568525247   0.7201517603668300   T   T   T
0.2354645945354311   0.0088348771588640   0.7303745630342509   T   T   T
0.5708444793499045   0.0101018966853042   0.7270128752186549   T   T   T
0.0688274393551007   0.7498342812166588   0.2205073336145954   T   T   T
0.0690670654309076   0.2647396792426507   0.2212942477936823   T   T   T
0.4071993731918440   0.7466321044442039   0.2214625110929705   T   T   T
0.4065154262739859   0.2685011221839881   0.2223953346583866   T   T   T
0.7322326261116087   0.7488888952110481   0.2258061660803913   T   T   T
0.7319304864061830   0.2655075350631695   0.2258766221319310   T   T   T
0.0699091924745167   0.2626454106585626   0.5524663068793035   T   T   T
0.4015236231277373   0.7519921174864814   0.5523790184412672   T   T   T
0.4017754937537212   0.2632588257605852   0.5529124200781250   T   T   T
0.7359981255067519   0.7493082204181550   0.5575771156472185   T   T   T
0.7360787310535637   0.2666364700046374   0.5567675050775667   T   T   T
0.0658527656198883   0.7512591943257463   0.8908939682095757   T   T   T
0.0684724950371687   0.2717639016822220   0.8935716124543667   T   T   T
0.4074754299530481   0.7506393603121642   0.8906755725924114   T   T   T
0.4050509357482778   0.2713422775499032   0.8934561030297624   T   T   T
0.7366532700528152   0.7440363011135875   0.8858274564175906   T   T   T
0.7367335207546787   0.2708937433837130   0.8866117610320362   T   T   T
0.0701430445949848   0.7529360295867423   0.5520519195194060   T   T   T
0.2377076321562453   0.5536061250805465   0.9969751148939606   T   T   T
0.9027247174222460   0.5070049046349517   0.2613009150011704   T   T   T
0.2351290134961000   0.5066517129951660   0.2763468304791419   T   T   T
0.7162783059693486   0.5075578426258931   0.0574404348399377   T   T   T
0.9051399026158468   0.5077151875695122   0.6031256498479617   T   T   T
0.5676842323565239   0.5077340404493860   0.5965949531384902   T   T   T
